code/experiments/eil51_sub/eil51_n18.tsp
NAME : eil51_n18
COMMENT : 51-city problem (Christofides/Eilon)
TYPE : TSP
DIMENSION : 18
EDGE_WEIGHT_TYPE : CEIL_2D
NODE_COORD_SECTION
1 37 52
2 49 49
3 20 26
4 21 47
5 17 63
6 31 62
7 51 21
8 42 41
9 31 32
10 27 23
11 17 33
12 7 38
13 58 27
14 38 46
15 32 22
16 5 6
17 25 55
18 48 28
EOF
