code/experiments/eil51_sub/eil51_n18.opt.tour
18
0 5 4 16 3 11 10 2 15 9 
14 8 17 6 12 1 7 13 
